18721624356644225 -1 -2 0
h 3 -4 0
h -5 6 0
h -6 7 0
4635274332432440 8 0
h 5 9 0
h 10 11 0
h 4 -12 -8 0
h -8 -7 0
h 1 -10 0
h 13 7 0
15112928757841 -3 0
h -14 12 0
h -15 16 0
h 13 8 0
5832958455299156 15 0
8130787420939655 -13 0
18482156563066259 14 0
1 -11 0
1 -9 0
